p cnf 374 2319
5 6 7 8 9 0
-5 -6 0
-5 -7 0
-5 -8 0
-5 -9 0
-6 -7 0
-6 -8 0
-6 -9 0
-7 -8 0
-7 -9 0
-8 -9 0
10 11 12 13 14 0
-10 -11 0
-10 -12 0
-10 -13 0
-10 -14 0
-11 -12 0
-11 -13 0
-11 -14 0
-12 -13 0
-12 -14 0
-13 -14 0
15 16 17 18 19 0
-15 -16 0
-15 -17 0
-15 -18 0
-15 -19 0
-16 -17 0
-16 -18 0
-16 -19 0
-17 -18 0
-17 -19 0
-18 -19 0
20 21 22 23 24 0
-20 -21 0
-20 -22 0
-20 -23 0
-20 -24 0
-21 -22 0
-21 -23 0
-21 -24 0
-22 -23 0
-22 -24 0
-23 -24 0
25 26 27 28 29 0
-25 -26 0
-25 -27 0
-25 -28 0
-25 -29 0
-26 -27 0
-26 -28 0
-26 -29 0
-27 -28 0
-27 -29 0
-28 -29 0
30 31 32 33 34 0
-30 -31 0
-30 -32 0
-30 -33 0
-30 -34 0
-31 -32 0
-31 -33 0
-31 -34 0
-32 -33 0
-32 -34 0
-33 -34 0
35 36 37 38 39 0
-35 -36 0
-35 -37 0
-35 -38 0
-35 -39 0
-36 -37 0
-36 -38 0
-36 -39 0
-37 -38 0
-37 -39 0
-38 -39 0
40 41 42 43 44 0
-40 -41 0
-40 -42 0
-40 -43 0
-40 -44 0
-41 -42 0
-41 -43 0
-41 -44 0
-42 -43 0
-42 -44 0
-43 -44 0
45 46 47 48 49 0
-45 -46 0
-45 -47 0
-45 -48 0
-45 -49 0
-46 -47 0
-46 -48 0
-46 -49 0
-47 -48 0
-47 -49 0
-48 -49 0
50 51 52 53 54 0
-50 -51 0
-50 -52 0
-50 -53 0
-50 -54 0
-51 -52 0
-51 -53 0
-51 -54 0
-52 -53 0
-52 -54 0
-53 -54 0
55 56 57 58 59 0
-55 -56 0
-55 -57 0
-55 -58 0
-55 -59 0
-56 -57 0
-56 -58 0
-56 -59 0
-57 -58 0
-57 -59 0
-58 -59 0
60 61 62 63 64 0
-60 -61 0
-60 -62 0
-60 -63 0
-60 -64 0
-61 -62 0
-61 -63 0
-61 -64 0
-62 -63 0
-62 -64 0
-63 -64 0
65 66 67 68 69 0
-65 -66 0
-65 -67 0
-65 -68 0
-65 -69 0
-66 -67 0
-66 -68 0
-66 -69 0
-67 -68 0
-67 -69 0
-68 -69 0
70 71 72 73 74 0
-70 -71 0
-70 -72 0
-70 -73 0
-70 -74 0
-71 -72 0
-71 -73 0
-71 -74 0
-72 -73 0
-72 -74 0
-73 -74 0
75 76 77 78 79 0
-75 -76 0
-75 -77 0
-75 -78 0
-75 -79 0
-76 -77 0
-76 -78 0
-76 -79 0
-77 -78 0
-77 -79 0
-78 -79 0
80 81 82 83 84 0
-80 -81 0
-80 -82 0
-80 -83 0
-80 -84 0
-81 -82 0
-81 -83 0
-81 -84 0
-82 -83 0
-82 -84 0
-83 -84 0
85 86 87 88 89 0
-85 -86 0
-85 -87 0
-85 -88 0
-85 -89 0
-86 -87 0
-86 -88 0
-86 -89 0
-87 -88 0
-87 -89 0
-88 -89 0
90 91 92 93 94 0
-90 -91 0
-90 -92 0
-90 -93 0
-90 -94 0
-91 -92 0
-91 -93 0
-91 -94 0
-92 -93 0
-92 -94 0
-93 -94 0
95 96 97 98 99 0
-95 -96 0
-95 -97 0
-95 -98 0
-95 -99 0
-96 -97 0
-96 -98 0
-96 -99 0
-97 -98 0
-97 -99 0
-98 -99 0
100 101 102 103 104 0
-100 -101 0
-100 -102 0
-100 -103 0
-100 -104 0
-101 -102 0
-101 -103 0
-101 -104 0
-102 -103 0
-102 -104 0
-103 -104 0
105 106 107 108 109 0
-105 -106 0
-105 -107 0
-105 -108 0
-105 -109 0
-106 -107 0
-106 -108 0
-106 -109 0
-107 -108 0
-107 -109 0
-108 -109 0
110 111 112 113 114 0
-110 -111 0
-110 -112 0
-110 -113 0
-110 -114 0
-111 -112 0
-111 -113 0
-111 -114 0
-112 -113 0
-112 -114 0
-113 -114 0
115 116 117 118 119 0
-115 -116 0
-115 -117 0
-115 -118 0
-115 -119 0
-116 -117 0
-116 -118 0
-116 -119 0
-117 -118 0
-117 -119 0
-118 -119 0
120 121 122 123 124 0
-120 -121 0
-120 -122 0
-120 -123 0
-120 -124 0
-121 -122 0
-121 -123 0
-121 -124 0
-122 -123 0
-122 -124 0
-123 -124 0
125 126 127 128 129 0
-125 -126 0
-125 -127 0
-125 -128 0
-125 -129 0
-126 -127 0
-126 -128 0
-126 -129 0
-127 -128 0
-127 -129 0
-128 -129 0
130 131 132 133 134 0
-130 -131 0
-130 -132 0
-130 -133 0
-130 -134 0
-131 -132 0
-131 -133 0
-131 -134 0
-132 -133 0
-132 -134 0
-133 -134 0
135 136 137 138 139 0
-135 -136 0
-135 -137 0
-135 -138 0
-135 -139 0
-136 -137 0
-136 -138 0
-136 -139 0
-137 -138 0
-137 -139 0
-138 -139 0
140 141 142 143 144 0
-140 -141 0
-140 -142 0
-140 -143 0
-140 -144 0
-141 -142 0
-141 -143 0
-141 -144 0
-142 -143 0
-142 -144 0
-143 -144 0
145 146 147 148 149 0
-145 -146 0
-145 -147 0
-145 -148 0
-145 -149 0
-146 -147 0
-146 -148 0
-146 -149 0
-147 -148 0
-147 -149 0
-148 -149 0
150 151 152 153 154 0
-150 -151 0
-150 -152 0
-150 -153 0
-150 -154 0
-151 -152 0
-151 -153 0
-151 -154 0
-152 -153 0
-152 -154 0
-153 -154 0
155 156 157 158 159 0
-155 -156 0
-155 -157 0
-155 -158 0
-155 -159 0
-156 -157 0
-156 -158 0
-156 -159 0
-157 -158 0
-157 -159 0
-158 -159 0
160 161 162 163 164 0
-160 -161 0
-160 -162 0
-160 -163 0
-160 -164 0
-161 -162 0
-161 -163 0
-161 -164 0
-162 -163 0
-162 -164 0
-163 -164 0
165 166 167 168 169 0
-165 -166 0
-165 -167 0
-165 -168 0
-165 -169 0
-166 -167 0
-166 -168 0
-166 -169 0
-167 -168 0
-167 -169 0
-168 -169 0
170 171 172 173 174 0
-170 -171 0
-170 -172 0
-170 -173 0
-170 -174 0
-171 -172 0
-171 -173 0
-171 -174 0
-172 -173 0
-172 -174 0
-173 -174 0
175 176 177 178 179 0
-175 -176 0
-175 -177 0
-175 -178 0
-175 -179 0
-176 -177 0
-176 -178 0
-176 -179 0
-177 -178 0
-177 -179 0
-178 -179 0
180 181 182 183 184 0
-180 -181 0
-180 -182 0
-180 -183 0
-180 -184 0
-181 -182 0
-181 -183 0
-181 -184 0
-182 -183 0
-182 -184 0
-183 -184 0
185 186 187 188 189 0
-185 -186 0
-185 -187 0
-185 -188 0
-185 -189 0
-186 -187 0
-186 -188 0
-186 -189 0
-187 -188 0
-187 -189 0
-188 -189 0
190 191 192 193 194 0
-190 -191 0
-190 -192 0
-190 -193 0
-190 -194 0
-191 -192 0
-191 -193 0
-191 -194 0
-192 -193 0
-192 -194 0
-193 -194 0
195 196 197 198 199 0
-195 -196 0
-195 -197 0
-195 -198 0
-195 -199 0
-196 -197 0
-196 -198 0
-196 -199 0
-197 -198 0
-197 -199 0
-198 -199 0
200 201 202 203 204 0
-200 -201 0
-200 -202 0
-200 -203 0
-200 -204 0
-201 -202 0
-201 -203 0
-201 -204 0
-202 -203 0
-202 -204 0
-203 -204 0
205 206 207 208 209 0
-205 -206 0
-205 -207 0
-205 -208 0
-205 -209 0
-206 -207 0
-206 -208 0
-206 -209 0
-207 -208 0
-207 -209 0
-208 -209 0
210 211 212 213 214 0
-210 -211 0
-210 -212 0
-210 -213 0
-210 -214 0
-211 -212 0
-211 -213 0
-211 -214 0
-212 -213 0
-212 -214 0
-213 -214 0
215 216 217 218 219 0
-215 -216 0
-215 -217 0
-215 -218 0
-215 -219 0
-216 -217 0
-216 -218 0
-216 -219 0
-217 -218 0
-217 -219 0
-218 -219 0
220 221 222 223 224 0
-220 -221 0
-220 -222 0
-220 -223 0
-220 -224 0
-221 -222 0
-221 -223 0
-221 -224 0
-222 -223 0
-222 -224 0
-223 -224 0
225 226 227 228 229 0
-225 -226 0
-225 -227 0
-225 -228 0
-225 -229 0
-226 -227 0
-226 -228 0
-226 -229 0
-227 -228 0
-227 -229 0
-228 -229 0
230 231 232 233 234 0
-230 -231 0
-230 -232 0
-230 -233 0
-230 -234 0
-231 -232 0
-231 -233 0
-231 -234 0
-232 -233 0
-232 -234 0
-233 -234 0
235 236 237 238 239 0
-235 -236 0
-235 -237 0
-235 -238 0
-235 -239 0
-236 -237 0
-236 -238 0
-236 -239 0
-237 -238 0
-237 -239 0
-238 -239 0
240 241 242 243 244 0
-240 -241 0
-240 -242 0
-240 -243 0
-240 -244 0
-241 -242 0
-241 -243 0
-241 -244 0
-242 -243 0
-242 -244 0
-243 -244 0
245 246 247 248 249 0
-245 -246 0
-245 -247 0
-245 -248 0
-245 -249 0
-246 -247 0
-246 -248 0
-246 -249 0
-247 -248 0
-247 -249 0
-248 -249 0
250 251 252 253 254 0
-250 -251 0
-250 -252 0
-250 -253 0
-250 -254 0
-251 -252 0
-251 -253 0
-251 -254 0
-252 -253 0
-252 -254 0
-253 -254 0
255 256 257 258 259 0
-255 -256 0
-255 -257 0
-255 -258 0
-255 -259 0
-256 -257 0
-256 -258 0
-256 -259 0
-257 -258 0
-257 -259 0
-258 -259 0
260 261 262 263 264 0
-260 -261 0
-260 -262 0
-260 -263 0
-260 -264 0
-261 -262 0
-261 -263 0
-261 -264 0
-262 -263 0
-262 -264 0
-263 -264 0
265 266 267 268 269 0
-265 -266 0
-265 -267 0
-265 -268 0
-265 -269 0
-266 -267 0
-266 -268 0
-266 -269 0
-267 -268 0
-267 -269 0
-268 -269 0
270 271 272 273 274 0
-270 -271 0
-270 -272 0
-270 -273 0
-270 -274 0
-271 -272 0
-271 -273 0
-271 -274 0
-272 -273 0
-272 -274 0
-273 -274 0
275 276 277 278 279 0
-275 -276 0
-275 -277 0
-275 -278 0
-275 -279 0
-276 -277 0
-276 -278 0
-276 -279 0
-277 -278 0
-277 -279 0
-278 -279 0
280 281 282 283 284 0
-280 -281 0
-280 -282 0
-280 -283 0
-280 -284 0
-281 -282 0
-281 -283 0
-281 -284 0
-282 -283 0
-282 -284 0
-283 -284 0
285 286 287 288 289 0
-285 -286 0
-285 -287 0
-285 -288 0
-285 -289 0
-286 -287 0
-286 -288 0
-286 -289 0
-287 -288 0
-287 -289 0
-288 -289 0
290 291 292 293 294 0
-290 -291 0
-290 -292 0
-290 -293 0
-290 -294 0
-291 -292 0
-291 -293 0
-291 -294 0
-292 -293 0
-292 -294 0
-293 -294 0
295 296 297 298 299 0
-295 -296 0
-295 -297 0
-295 -298 0
-295 -299 0
-296 -297 0
-296 -298 0
-296 -299 0
-297 -298 0
-297 -299 0
-298 -299 0
300 301 302 303 304 0
-300 -301 0
-300 -302 0
-300 -303 0
-300 -304 0
-301 -302 0
-301 -303 0
-301 -304 0
-302 -303 0
-302 -304 0
-303 -304 0
305 306 307 308 309 0
-305 -306 0
-305 -307 0
-305 -308 0
-305 -309 0
-306 -307 0
-306 -308 0
-306 -309 0
-307 -308 0
-307 -309 0
-308 -309 0
310 311 312 313 314 0
-310 -311 0
-310 -312 0
-310 -313 0
-310 -314 0
-311 -312 0
-311 -313 0
-311 -314 0
-312 -313 0
-312 -314 0
-313 -314 0
315 316 317 318 319 0
-315 -316 0
-315 -317 0
-315 -318 0
-315 -319 0
-316 -317 0
-316 -318 0
-316 -319 0
-317 -318 0
-317 -319 0
-318 -319 0
320 321 322 323 324 0
-320 -321 0
-320 -322 0
-320 -323 0
-320 -324 0
-321 -322 0
-321 -323 0
-321 -324 0
-322 -323 0
-322 -324 0
-323 -324 0
325 326 327 328 329 0
-325 -326 0
-325 -327 0
-325 -328 0
-325 -329 0
-326 -327 0
-326 -328 0
-326 -329 0
-327 -328 0
-327 -329 0
-328 -329 0
330 331 332 333 334 0
-330 -331 0
-330 -332 0
-330 -333 0
-330 -334 0
-331 -332 0
-331 -333 0
-331 -334 0
-332 -333 0
-332 -334 0
-333 -334 0
335 336 337 338 339 0
-335 -336 0
-335 -337 0
-335 -338 0
-335 -339 0
-336 -337 0
-336 -338 0
-336 -339 0
-337 -338 0
-337 -339 0
-338 -339 0
340 341 342 343 344 0
-340 -341 0
-340 -342 0
-340 -343 0
-340 -344 0
-341 -342 0
-341 -343 0
-341 -344 0
-342 -343 0
-342 -344 0
-343 -344 0
345 346 347 348 349 0
-345 -346 0
-345 -347 0
-345 -348 0
-345 -349 0
-346 -347 0
-346 -348 0
-346 -349 0
-347 -348 0
-347 -349 0
-348 -349 0
350 351 352 353 354 0
-350 -351 0
-350 -352 0
-350 -353 0
-350 -354 0
-351 -352 0
-351 -353 0
-351 -354 0
-352 -353 0
-352 -354 0
-353 -354 0
355 356 357 358 359 0
-355 -356 0
-355 -357 0
-355 -358 0
-355 -359 0
-356 -357 0
-356 -358 0
-356 -359 0
-357 -358 0
-357 -359 0
-358 -359 0
360 361 362 363 364 0
-360 -361 0
-360 -362 0
-360 -363 0
-360 -364 0
-361 -362 0
-361 -363 0
-361 -364 0
-362 -363 0
-362 -364 0
-363 -364 0
365 366 367 368 369 0
-365 -366 0
-365 -367 0
-365 -368 0
-365 -369 0
-366 -367 0
-366 -368 0
-366 -369 0
-367 -368 0
-367 -369 0
-368 -369 0
370 371 372 373 374 0
-370 -371 0
-370 -372 0
-370 -373 0
-370 -374 0
-371 -372 0
-371 -373 0
-371 -374 0
-372 -373 0
-372 -374 0
-373 -374 0
-5 -20 0
-6 -21 0
-7 -22 0
-8 -23 0
-9 -24 0
-5 -345 0
-6 -346 0
-7 -347 0
-8 -348 0
-9 -349 0
-5 -25 0
-6 -26 0
-7 -27 0
-8 -28 0
-9 -29 0
-5 -200 0
-6 -201 0
-7 -202 0
-8 -203 0
-9 -204 0
-5 -45 0
-6 -46 0
-7 -47 0
-8 -48 0
-9 -49 0
-5 -50 0
-6 -51 0
-7 -52 0
-8 -53 0
-9 -54 0
-5 -55 0
-6 -56 0
-7 -57 0
-8 -58 0
-9 -59 0
-5 -220 0
-6 -221 0
-7 -222 0
-8 -223 0
-9 -224 0
-5 -65 0
-6 -66 0
-7 -67 0
-8 -68 0
-9 -69 0
-5 -360 0
-6 -361 0
-7 -362 0
-8 -363 0
-9 -364 0
-5 -245 0
-6 -246 0
-7 -247 0
-8 -248 0
-9 -249 0
-5 -250 0
-6 -251 0
-7 -252 0
-8 -253 0
-9 -254 0
-5 -110 0
-6 -111 0
-7 -112 0
-8 -113 0
-9 -114 0
-5 -275 0
-6 -276 0
-7 -277 0
-8 -278 0
-9 -279 0
-5 -125 0
-6 -126 0
-7 -127 0
-8 -128 0
-9 -129 0
-5 -295 0
-6 -296 0
-7 -297 0
-8 -298 0
-9 -299 0
-5 -145 0
-6 -146 0
-7 -147 0
-8 -148 0
-9 -149 0
-5 -315 0
-6 -316 0
-7 -317 0
-8 -318 0
-9 -319 0
-10 -20 0
-11 -21 0
-12 -22 0
-13 -23 0
-14 -24 0
-10 -205 0
-11 -206 0
-12 -207 0
-13 -208 0
-14 -209 0
-10 -370 0
-11 -371 0
-12 -372 0
-13 -373 0
-14 -374 0
-10 -215 0
-11 -216 0
-12 -217 0
-13 -218 0
-14 -219 0
-10 -230 0
-11 -231 0
-12 -232 0
-13 -233 0
-14 -234 0
-10 -255 0
-11 -256 0
-12 -257 0
-13 -258 0
-14 -259 0
-10 -275 0
-11 -276 0
-12 -277 0
-13 -278 0
-14 -279 0
-10 -285 0
-11 -286 0
-12 -287 0
-13 -288 0
-14 -289 0
-10 -310 0
-11 -311 0
-12 -312 0
-13 -313 0
-14 -314 0
-15 -45 0
-16 -46 0
-17 -47 0
-18 -48 0
-19 -49 0
-15 -260 0
-16 -261 0
-17 -262 0
-18 -263 0
-19 -264 0
-15 -265 0
-16 -266 0
-17 -267 0
-18 -268 0
-19 -269 0
-15 -275 0
-16 -276 0
-17 -277 0
-18 -278 0
-19 -279 0
-20 -45 0
-21 -46 0
-22 -47 0
-23 -48 0
-24 -49 0
-20 -60 0
-21 -61 0
-22 -62 0
-23 -63 0
-24 -64 0
-20 -95 0
-21 -96 0
-22 -97 0
-23 -98 0
-24 -99 0
-20 -110 0
-21 -111 0
-22 -112 0
-23 -113 0
-24 -114 0
-20 -135 0
-21 -136 0
-22 -137 0
-23 -138 0
-24 -139 0
-20 -160 0
-21 -161 0
-22 -162 0
-23 -163 0
-24 -164 0
-20 -205 0
-21 -206 0
-22 -207 0
-23 -208 0
-24 -209 0
-20 -215 0
-21 -216 0
-22 -217 0
-23 -218 0
-24 -219 0
-20 -225 0
-21 -226 0
-22 -227 0
-23 -228 0
-24 -229 0
-20 -230 0
-21 -231 0
-22 -232 0
-23 -233 0
-24 -234 0
-20 -235 0
-21 -236 0
-22 -237 0
-23 -238 0
-24 -239 0
-20 -245 0
-21 -246 0
-22 -247 0
-23 -248 0
-24 -249 0
-20 -275 0
-21 -276 0
-22 -277 0
-23 -278 0
-24 -279 0
-20 -280 0
-21 -281 0
-22 -282 0
-23 -283 0
-24 -284 0
-20 -285 0
-21 -286 0
-22 -287 0
-23 -288 0
-24 -289 0
-20 -300 0
-21 -301 0
-22 -302 0
-23 -303 0
-24 -304 0
-20 -310 0
-21 -311 0
-22 -312 0
-23 -313 0
-24 -314 0
-20 -315 0
-21 -316 0
-22 -317 0
-23 -318 0
-24 -319 0
-20 -335 0
-21 -336 0
-22 -337 0
-23 -338 0
-24 -339 0
-20 -340 0
-21 -341 0
-22 -342 0
-23 -343 0
-24 -344 0
-20 -345 0
-21 -346 0
-22 -347 0
-23 -348 0
-24 -349 0
-20 -355 0
-21 -356 0
-22 -357 0
-23 -358 0
-24 -359 0
-20 -365 0
-21 -366 0
-22 -367 0
-23 -368 0
-24 -369 0
-25 -200 0
-26 -201 0
-27 -202 0
-28 -203 0
-29 -204 0
-25 -55 0
-26 -56 0
-27 -57 0
-28 -58 0
-29 -59 0
-25 -65 0
-26 -66 0
-27 -67 0
-28 -68 0
-29 -69 0
-25 -245 0
-26 -246 0
-27 -247 0
-28 -248 0
-29 -249 0
-25 -250 0
-26 -251 0
-27 -252 0
-28 -253 0
-29 -254 0
-25 -275 0
-26 -276 0
-27 -277 0
-28 -278 0
-29 -279 0
-25 -125 0
-26 -126 0
-27 -127 0
-28 -128 0
-29 -129 0
-25 -295 0
-26 -296 0
-27 -297 0
-28 -298 0
-29 -299 0
-25 -145 0
-26 -146 0
-27 -147 0
-28 -148 0
-29 -149 0
-30 -320 0
-31 -321 0
-32 -322 0
-33 -323 0
-34 -324 0
-30 -170 0
-31 -171 0
-32 -172 0
-33 -173 0
-34 -174 0
-30 -195 0
-31 -196 0
-32 -197 0
-33 -198 0
-34 -199 0
-30 -85 0
-31 -86 0
-32 -87 0
-33 -88 0
-34 -89 0
-30 -100 0
-31 -101 0
-32 -102 0
-33 -103 0
-34 -104 0
-30 -105 0
-31 -106 0
-32 -107 0
-33 -108 0
-34 -109 0
-30 -275 0
-31 -276 0
-32 -277 0
-33 -278 0
-34 -279 0
-30 -115 0
-31 -116 0
-32 -117 0
-33 -118 0
-34 -119 0
-35 -350 0
-36 -351 0
-37 -352 0
-38 -353 0
-39 -354 0
-40 -190 0
-41 -191 0
-42 -192 0
-43 -193 0
-44 -194 0
-40 -45 0
-41 -46 0
-42 -47 0
-43 -48 0
-44 -49 0
-40 -220 0
-41 -221 0
-42 -222 0
-43 -223 0
-44 -224 0
-40 -70 0
-41 -71 0
-42 -72 0
-43 -73 0
-44 -74 0
-40 -90 0
-41 -91 0
-42 -92 0
-43 -93 0
-44 -94 0
-40 -260 0
-41 -261 0
-42 -262 0
-43 -263 0
-44 -264 0
-40 -155 0
-41 -156 0
-42 -157 0
-43 -158 0
-44 -159 0
-45 -330 0
-46 -331 0
-47 -332 0
-48 -333 0
-49 -334 0
-45 -345 0
-46 -346 0
-47 -347 0
-48 -348 0
-49 -349 0
-45 -190 0
-46 -191 0
-47 -192 0
-48 -193 0
-49 -194 0
-45 -360 0
-46 -361 0
-47 -362 0
-48 -363 0
-49 -364 0
-45 -50 0
-46 -51 0
-47 -52 0
-48 -53 0
-49 -54 0
-45 -220 0
-46 -221 0
-47 -222 0
-48 -223 0
-49 -224 0
-45 -70 0
-46 -71 0
-47 -72 0
-48 -73 0
-49 -74 0
-45 -245 0
-46 -246 0
-47 -247 0
-48 -248 0
-49 -249 0
-45 -90 0
-46 -91 0
-47 -92 0
-48 -93 0
-49 -94 0
-45 -260 0
-46 -261 0
-47 -262 0
-48 -263 0
-49 -264 0
-45 -265 0
-46 -266 0
-47 -267 0
-48 -268 0
-49 -269 0
-45 -110 0
-46 -111 0
-47 -112 0
-48 -113 0
-49 -114 0
-45 -275 0
-46 -276 0
-47 -277 0
-48 -278 0
-49 -279 0
-45 -155 0
-46 -156 0
-47 -157 0
-48 -158 0
-49 -159 0
-50 -360 0
-51 -361 0
-52 -362 0
-53 -363 0
-54 -364 0
-50 -245 0
-51 -246 0
-52 -247 0
-53 -248 0
-54 -249 0
-50 -275 0
-51 -276 0
-52 -277 0
-53 -278 0
-54 -279 0
-55 -200 0
-56 -201 0
-57 -202 0
-58 -203 0
-59 -204 0
-55 -65 0
-56 -66 0
-57 -67 0
-58 -68 0
-59 -69 0
-55 -245 0
-56 -246 0
-57 -247 0
-58 -248 0
-59 -249 0
-55 -250 0
-56 -251 0
-57 -252 0
-58 -253 0
-59 -254 0
-55 -275 0
-56 -276 0
-57 -277 0
-58 -278 0
-59 -279 0
-55 -125 0
-56 -126 0
-57 -127 0
-58 -128 0
-59 -129 0
-55 -295 0
-56 -296 0
-57 -297 0
-58 -298 0
-59 -299 0
-55 -145 0
-56 -146 0
-57 -147 0
-58 -148 0
-59 -149 0
-60 -335 0
-61 -336 0
-62 -337 0
-63 -338 0
-64 -339 0
-60 -365 0
-61 -366 0
-62 -367 0
-63 -368 0
-64 -369 0
-60 -205 0
-61 -206 0
-62 -207 0
-63 -208 0
-64 -209 0
-60 -215 0
-61 -216 0
-62 -217 0
-63 -218 0
-64 -219 0
-60 -235 0
-61 -236 0
-62 -237 0
-63 -238 0
-64 -239 0
-60 -275 0
-61 -276 0
-62 -277 0
-63 -278 0
-64 -279 0
-60 -285 0
-61 -286 0
-62 -287 0
-63 -288 0
-64 -289 0
-60 -310 0
-61 -311 0
-62 -312 0
-63 -313 0
-64 -314 0
-65 -200 0
-66 -201 0
-67 -202 0
-68 -203 0
-69 -204 0
-65 -245 0
-66 -246 0
-67 -247 0
-68 -248 0
-69 -249 0
-65 -250 0
-66 -251 0
-67 -252 0
-68 -253 0
-69 -254 0
-65 -275 0
-66 -276 0
-67 -277 0
-68 -278 0
-69 -279 0
-65 -125 0
-66 -126 0
-67 -127 0
-68 -128 0
-69 -129 0
-65 -295 0
-66 -296 0
-67 -297 0
-68 -298 0
-69 -299 0
-65 -145 0
-66 -146 0
-67 -147 0
-68 -148 0
-69 -149 0
-70 -190 0
-71 -191 0
-72 -192 0
-73 -193 0
-74 -194 0
-70 -220 0
-71 -221 0
-72 -222 0
-73 -223 0
-74 -224 0
-70 -90 0
-71 -91 0
-72 -92 0
-73 -93 0
-74 -94 0
-70 -260 0
-71 -261 0
-72 -262 0
-73 -263 0
-74 -264 0
-70 -155 0
-71 -156 0
-72 -157 0
-73 -158 0
-74 -159 0
-75 -110 0
-76 -111 0
-77 -112 0
-78 -113 0
-79 -114 0
-75 -275 0
-76 -276 0
-77 -277 0
-78 -278 0
-79 -279 0
-80 -325 0
-81 -326 0
-82 -327 0
-83 -328 0
-84 -329 0
-80 -275 0
-81 -276 0
-82 -277 0
-83 -278 0
-84 -279 0
-85 -320 0
-86 -321 0
-87 -322 0
-88 -323 0
-89 -324 0
-85 -170 0
-86 -171 0
-87 -172 0
-88 -173 0
-89 -174 0
-85 -195 0
-86 -196 0
-87 -197 0
-88 -198 0
-89 -199 0
-85 -100 0
-86 -101 0
-87 -102 0
-88 -103 0
-89 -104 0
-85 -105 0
-86 -106 0
-87 -107 0
-88 -108 0
-89 -109 0
-85 -275 0
-86 -276 0
-87 -277 0
-88 -278 0
-89 -279 0
-85 -115 0
-86 -116 0
-87 -117 0
-88 -118 0
-89 -119 0
-85 -140 0
-86 -141 0
-87 -142 0
-88 -143 0
-89 -144 0
-85 -150 0
-86 -151 0
-87 -152 0
-88 -153 0
-89 -154 0
-90 -190 0
-91 -191 0
-92 -192 0
-93 -193 0
-94 -194 0
-90 -220 0
-91 -221 0
-92 -222 0
-93 -223 0
-94 -224 0
-90 -260 0
-91 -261 0
-92 -262 0
-93 -263 0
-94 -264 0
-90 -110 0
-91 -111 0
-92 -112 0
-93 -113 0
-94 -114 0
-90 -275 0
-91 -276 0
-92 -277 0
-93 -278 0
-94 -279 0
-90 -120 0
-91 -121 0
-92 -122 0
-93 -123 0
-94 -124 0
-90 -155 0
-91 -156 0
-92 -157 0
-93 -158 0
-94 -159 0
-95 -340 0
-96 -341 0
-97 -342 0
-98 -343 0
-99 -344 0
-95 -365 0
-96 -366 0
-97 -367 0
-98 -368 0
-99 -369 0
-95 -205 0
-96 -206 0
-97 -207 0
-98 -208 0
-99 -209 0
-95 -275 0
-96 -276 0
-97 -277 0
-98 -278 0
-99 -279 0
-95 -280 0
-96 -281 0
-97 -282 0
-98 -283 0
-99 -284 0
-95 -285 0
-96 -286 0
-97 -287 0
-98 -288 0
-99 -289 0
-95 -135 0
-96 -136 0
-97 -137 0
-98 -138 0
-99 -139 0
-95 -300 0
-96 -301 0
-97 -302 0
-98 -303 0
-99 -304 0
-100 -320 0
-101 -321 0
-102 -322 0
-103 -323 0
-104 -324 0
-100 -170 0
-101 -171 0
-102 -172 0
-103 -173 0
-104 -174 0
-100 -195 0
-101 -196 0
-102 -197 0
-103 -198 0
-104 -199 0
-100 -105 0
-101 -106 0
-102 -107 0
-103 -108 0
-104 -109 0
-100 -275 0
-101 -276 0
-102 -277 0
-103 -278 0
-104 -279 0
-100 -115 0
-101 -116 0
-102 -117 0
-103 -118 0
-104 -119 0
-105 -320 0
-106 -321 0
-107 -322 0
-108 -323 0
-109 -324 0
-105 -170 0
-106 -171 0
-107 -172 0
-108 -173 0
-109 -174 0
-105 -195 0
-106 -196 0
-107 -197 0
-108 -198 0
-109 -199 0
-105 -275 0
-106 -276 0
-107 -277 0
-108 -278 0
-109 -279 0
-105 -115 0
-106 -116 0
-107 -117 0
-108 -118 0
-109 -119 0
-110 -330 0
-111 -331 0
-112 -332 0
-113 -333 0
-114 -334 0
-110 -345 0
-111 -346 0
-112 -347 0
-113 -348 0
-114 -349 0
-110 -205 0
-111 -206 0
-112 -207 0
-113 -208 0
-114 -209 0
-110 -210 0
-111 -211 0
-112 -212 0
-113 -213 0
-114 -214 0
-110 -220 0
-111 -221 0
-112 -222 0
-113 -223 0
-114 -224 0
-110 -245 0
-111 -246 0
-112 -247 0
-113 -248 0
-114 -249 0
-110 -275 0
-111 -276 0
-112 -277 0
-113 -278 0
-114 -279 0
-110 -285 0
-111 -286 0
-112 -287 0
-113 -288 0
-114 -289 0
-110 -130 0
-111 -131 0
-112 -132 0
-113 -133 0
-114 -134 0
-110 -305 0
-111 -306 0
-112 -307 0
-113 -308 0
-114 -309 0
-110 -315 0
-111 -316 0
-112 -317 0
-113 -318 0
-114 -319 0
-115 -320 0
-116 -321 0
-117 -322 0
-118 -323 0
-119 -324 0
-115 -170 0
-116 -171 0
-117 -172 0
-118 -173 0
-119 -174 0
-115 -195 0
-116 -196 0
-117 -197 0
-118 -198 0
-119 -199 0
-115 -275 0
-116 -276 0
-117 -277 0
-118 -278 0
-119 -279 0
-115 -150 0
-116 -151 0
-117 -152 0
-118 -153 0
-119 -154 0
-120 -210 0
-121 -211 0
-122 -212 0
-123 -213 0
-124 -214 0
-120 -275 0
-121 -276 0
-122 -277 0
-123 -278 0
-124 -279 0
-120 -155 0
-121 -156 0
-122 -157 0
-123 -158 0
-124 -159 0
-125 -200 0
-126 -201 0
-127 -202 0
-128 -203 0
-129 -204 0
-125 -245 0
-126 -246 0
-127 -247 0
-128 -248 0
-129 -249 0
-125 -250 0
-126 -251 0
-127 -252 0
-128 -253 0
-129 -254 0
-125 -275 0
-126 -276 0
-127 -277 0
-128 -278 0
-129 -279 0
-125 -295 0
-126 -296 0
-127 -297 0
-128 -298 0
-129 -299 0
-125 -145 0
-126 -146 0
-127 -147 0
-128 -148 0
-129 -149 0
-135 -340 0
-136 -341 0
-137 -342 0
-138 -343 0
-139 -344 0
-135 -365 0
-136 -366 0
-137 -367 0
-138 -368 0
-139 -369 0
-135 -205 0
-136 -206 0
-137 -207 0
-138 -208 0
-139 -209 0
-135 -275 0
-136 -276 0
-137 -277 0
-138 -278 0
-139 -279 0
-135 -280 0
-136 -281 0
-137 -282 0
-138 -283 0
-139 -284 0
-135 -285 0
-136 -286 0
-137 -287 0
-138 -288 0
-139 -289 0
-135 -300 0
-136 -301 0
-137 -302 0
-138 -303 0
-139 -304 0
-135 -310 0
-136 -311 0
-137 -312 0
-138 -313 0
-139 -314 0
-145 -200 0
-146 -201 0
-147 -202 0
-148 -203 0
-149 -204 0
-145 -245 0
-146 -246 0
-147 -247 0
-148 -248 0
-149 -249 0
-145 -250 0
-146 -251 0
-147 -252 0
-148 -253 0
-149 -254 0
-145 -275 0
-146 -276 0
-147 -277 0
-148 -278 0
-149 -279 0
-145 -295 0
-146 -296 0
-147 -297 0
-148 -298 0
-149 -299 0
-150 -275 0
-151 -276 0
-152 -277 0
-153 -278 0
-154 -279 0
-155 -190 0
-156 -191 0
-157 -192 0
-158 -193 0
-159 -194 0
-155 -220 0
-156 -221 0
-157 -222 0
-158 -223 0
-159 -224 0
-155 -260 0
-156 -261 0
-157 -262 0
-158 -263 0
-159 -264 0
-155 -275 0
-156 -276 0
-157 -277 0
-158 -278 0
-159 -279 0
-160 -355 0
-161 -356 0
-162 -357 0
-163 -358 0
-164 -359 0
-165 -245 0
-166 -246 0
-167 -247 0
-168 -248 0
-169 -249 0
-170 -320 0
-171 -321 0
-172 -322 0
-173 -323 0
-174 -324 0
-170 -195 0
-171 -196 0
-172 -197 0
-173 -198 0
-174 -199 0
-170 -275 0
-171 -276 0
-172 -277 0
-173 -278 0
-174 -279 0
-175 -240 0
-176 -241 0
-177 -242 0
-178 -243 0
-179 -244 0
-175 -290 0
-176 -291 0
-177 -292 0
-178 -293 0
-179 -294 0
-180 -285 0
-181 -286 0
-182 -287 0
-183 -288 0
-184 -289 0
-180 -300 0
-181 -301 0
-182 -302 0
-183 -303 0
-184 -304 0
-180 -205 0
-181 -206 0
-182 -207 0
-183 -208 0
-184 -209 0
-180 -275 0
-181 -276 0
-182 -277 0
-183 -278 0
-184 -279 0
-185 -360 0
-186 -361 0
-187 -362 0
-188 -363 0
-189 -364 0
-185 -245 0
-186 -246 0
-187 -247 0
-188 -248 0
-189 -249 0
-190 -220 0
-191 -221 0
-192 -222 0
-193 -223 0
-194 -224 0
-190 -260 0
-191 -261 0
-192 -262 0
-193 -263 0
-194 -264 0
-195 -320 0
-196 -321 0
-197 -322 0
-198 -323 0
-199 -324 0
-195 -275 0
-196 -276 0
-197 -277 0
-198 -278 0
-199 -279 0
-200 -245 0
-201 -246 0
-202 -247 0
-203 -248 0
-204 -249 0
-200 -250 0
-201 -251 0
-202 -252 0
-203 -253 0
-204 -254 0
-200 -275 0
-201 -276 0
-202 -277 0
-203 -278 0
-204 -279 0
-200 -295 0
-201 -296 0
-202 -297 0
-203 -298 0
-204 -299 0
-205 -335 0
-206 -336 0
-207 -337 0
-208 -338 0
-209 -339 0
-205 -340 0
-206 -341 0
-207 -342 0
-208 -343 0
-209 -344 0
-205 -365 0
-206 -366 0
-207 -367 0
-208 -368 0
-209 -369 0
-205 -370 0
-206 -371 0
-207 -372 0
-208 -373 0
-209 -374 0
-205 -215 0
-206 -216 0
-207 -217 0
-208 -218 0
-209 -219 0
-205 -230 0
-206 -231 0
-207 -232 0
-208 -233 0
-209 -234 0
-205 -235 0
-206 -236 0
-207 -237 0
-208 -238 0
-209 -239 0
-205 -255 0
-206 -256 0
-207 -257 0
-208 -258 0
-209 -259 0
-205 -275 0
-206 -276 0
-207 -277 0
-208 -278 0
-209 -279 0
-205 -280 0
-206 -281 0
-207 -282 0
-208 -283 0
-209 -284 0
-205 -285 0
-206 -286 0
-207 -287 0
-208 -288 0
-209 -289 0
-205 -300 0
-206 -301 0
-207 -302 0
-208 -303 0
-209 -304 0
-205 -310 0
-206 -311 0
-207 -312 0
-208 -313 0
-209 -314 0
-210 -275 0
-211 -276 0
-212 -277 0
-213 -278 0
-214 -279 0
-215 -335 0
-216 -336 0
-217 -337 0
-218 -338 0
-219 -339 0
-215 -365 0
-216 -366 0
-217 -367 0
-218 -368 0
-219 -369 0
-215 -370 0
-216 -371 0
-217 -372 0
-218 -373 0
-219 -374 0
-215 -235 0
-216 -236 0
-217 -237 0
-218 -238 0
-219 -239 0
-215 -255 0
-216 -256 0
-217 -257 0
-218 -258 0
-219 -259 0
-215 -285 0
-216 -286 0
-217 -287 0
-218 -288 0
-219 -289 0
-220 -245 0
-221 -246 0
-222 -247 0
-223 -248 0
-224 -249 0
-220 -260 0
-221 -261 0
-222 -262 0
-223 -263 0
-224 -264 0
-220 -275 0
-221 -276 0
-222 -277 0
-223 -278 0
-224 -279 0
-225 -355 0
-226 -356 0
-227 -357 0
-228 -358 0
-229 -359 0
-230 -275 0
-231 -276 0
-232 -277 0
-233 -278 0
-234 -279 0
-230 -285 0
-231 -286 0
-232 -287 0
-233 -288 0
-234 -289 0
-230 -310 0
-231 -311 0
-232 -312 0
-233 -313 0
-234 -314 0
-235 -335 0
-236 -336 0
-237 -337 0
-238 -338 0
-239 -339 0
-235 -365 0
-236 -366 0
-237 -367 0
-238 -368 0
-239 -369 0
-235 -275 0
-236 -276 0
-237 -277 0
-238 -278 0
-239 -279 0
-235 -285 0
-236 -286 0
-237 -287 0
-238 -288 0
-239 -289 0
-235 -310 0
-236 -311 0
-237 -312 0
-238 -313 0
-239 -314 0
-240 -290 0
-241 -291 0
-242 -292 0
-243 -293 0
-244 -294 0
-245 -345 0
-246 -346 0
-247 -347 0
-248 -348 0
-249 -349 0
-245 -360 0
-246 -361 0
-247 -362 0
-248 -363 0
-249 -364 0
-245 -250 0
-246 -251 0
-247 -252 0
-248 -253 0
-249 -254 0
-245 -275 0
-246 -276 0
-247 -277 0
-248 -278 0
-249 -279 0
-245 -295 0
-246 -296 0
-247 -297 0
-248 -298 0
-249 -299 0
-250 -275 0
-251 -276 0
-252 -277 0
-253 -278 0
-254 -279 0
-250 -295 0
-251 -296 0
-252 -297 0
-253 -298 0
-254 -299 0
-255 -370 0
-256 -371 0
-257 -372 0
-258 -373 0
-259 -374 0
-255 -285 0
-256 -286 0
-257 -287 0
-258 -288 0
-259 -289 0
-260 -265 0
-261 -266 0
-262 -267 0
-263 -268 0
-264 -269 0
-260 -275 0
-261 -276 0
-262 -277 0
-263 -278 0
-264 -279 0
-265 -275 0
-266 -276 0
-267 -277 0
-268 -278 0
-269 -279 0
-270 -275 0
-271 -276 0
-272 -277 0
-273 -278 0
-274 -279 0
-275 -280 0
-276 -281 0
-277 -282 0
-278 -283 0
-279 -284 0
-275 -285 0
-276 -286 0
-277 -287 0
-278 -288 0
-279 -289 0
-275 -295 0
-276 -296 0
-277 -297 0
-278 -298 0
-279 -299 0
-275 -300 0
-276 -301 0
-277 -302 0
-278 -303 0
-279 -304 0
-275 -310 0
-276 -311 0
-277 -312 0
-278 -313 0
-279 -314 0
-275 -320 0
-276 -321 0
-277 -322 0
-278 -323 0
-279 -324 0
-275 -325 0
-276 -326 0
-277 -327 0
-278 -328 0
-279 -329 0
-275 -330 0
-276 -331 0
-277 -332 0
-278 -333 0
-279 -334 0
-275 -335 0
-276 -336 0
-277 -337 0
-278 -338 0
-279 -339 0
-275 -340 0
-276 -341 0
-277 -342 0
-278 -343 0
-279 -344 0
-275 -345 0
-276 -346 0
-277 -347 0
-278 -348 0
-279 -349 0
-275 -360 0
-276 -361 0
-277 -362 0
-278 -363 0
-279 -364 0
-275 -365 0
-276 -366 0
-277 -367 0
-278 -368 0
-279 -369 0
-280 -340 0
-281 -341 0
-282 -342 0
-283 -343 0
-284 -344 0
-280 -365 0
-281 -366 0
-282 -367 0
-283 -368 0
-284 -369 0
-280 -285 0
-281 -286 0
-282 -287 0
-283 -288 0
-284 -289 0
-280 -300 0
-281 -301 0
-282 -302 0
-283 -303 0
-284 -304 0
-285 -335 0
-286 -336 0
-287 -337 0
-288 -338 0
-289 -339 0
-285 -340 0
-286 -341 0
-287 -342 0
-288 -343 0
-289 -344 0
-285 -365 0
-286 -366 0
-287 -367 0
-288 -368 0
-289 -369 0
-285 -370 0
-286 -371 0
-287 -372 0
-288 -373 0
-289 -374 0
-285 -300 0
-286 -301 0
-287 -302 0
-288 -303 0
-289 -304 0
-285 -310 0
-286 -311 0
-287 -312 0
-288 -313 0
-289 -314 0
-300 -340 0
-301 -341 0
-302 -342 0
-303 -343 0
-304 -344 0
-300 -365 0
-301 -366 0
-302 -367 0
-303 -368 0
-304 -369 0
-310 -335 0
-311 -336 0
-312 -337 0
-313 -338 0
-314 -339 0
-335 -365 0
-336 -366 0
-337 -367 0
-338 -368 0
-339 -369 0
-340 -365 0
-341 -366 0
-342 -367 0
-343 -368 0
-344 -369 0
